N = 7;
H = 5;
T = 2;

avail = array3d(1..N, 1..H, 1..T, [7, 4, 9, 3, 10, 5, 9, 4, 10, 2, 3, 4, 2, 9, 4, 5, 2, 10, 2, 3, 4, 3, 5, 10, 1, 7, 5, 5, 9, 8, 10, 8, 0, 8, 0, 8, 0, 8, 3, 3, 0, 0, 10, 8, 6, 6, 3, 0, 10, 7, 9, 1, 3, 10, 7, 10, 2, 7, 6, 2, 5, 1, 0, 4, 8, 9, 8, 1, 8, 10]);

r = array2d(1..H, 1..T, [3, 1, 2, 1, 2, 1, 3, 2, 2, 2]);
